%%%%%%%%%%%%%%%%%%%%%%%%%%%%%%%%%%%%%%%%%%%%%%%%%%%%%%%%%%%%%%%%%%%%%%%%%
%FILE DATA:	Soccer Computational Problem for MiniZinc Models
%AUTHORS:	Robinson Duque, Alejandro Arbelaez, Juan Francisco Díaz
%CONTACT:  	robinson.duque@correounivalle.edu.co 
%LAST UPDATE:	May, 2018 
%ROUND ROBIN:2
%TEAMS:20
%PRESENT FIXTURE:24
%FIXTURES TO PLAY:14
%GAMES TO PLAY:140
%%%%%%%%%%%%%%%%%%%%%%%%%%%%%%%%%%%%%%%%%%%%%%%%%%%%%%%%%%%%%%%%%%%%%%%%%
%Number of teams:
n=20;

%For the purpose of our models, we offer two representations of the games to play, namely fixtures and games to play:

%Fixtures to play:
%fixtures=[|0,1,1,1,1,1,1,1,0,0,1,1,1,1,0,0,0,1,1,1
%|1,0,0,1,1,0,0,0,0,1,1,1,1,1,1,1,1,1,1,1
%|1,0,0,1,0,0,1,1,1,1,1,1,0,0,1,1,1,1,1,1
%|1,1,1,0,1,1,1,0,0,1,0,0,1,1,0,1,1,1,1,1
%|1,1,0,1,0,1,1,0,1,1,1,1,1,0,0,1,1,0,1,1
%|1,0,0,1,1,0,1,1,0,1,0,1,0,1,1,1,1,1,1,1
%|1,0,1,1,1,1,0,0,1,1,0,0,1,1,0,1,1,1,1,1
%|1,0,1,0,0,1,0,0,0,1,1,1,1,1,1,1,1,1,1,1
%|0,0,1,0,1,0,1,0,0,1,1,1,1,1,1,1,1,1,1,1
%|0,1,1,1,1,1,1,1,1,0,1,0,1,1,0,0,1,0,1,1
%|1,1,1,0,1,0,0,1,1,1,0,1,0,1,1,1,1,0,1,1
%|1,1,1,0,1,1,0,1,1,0,1,0,1,0,1,1,0,1,1,1
%|1,1,0,1,1,0,1,1,1,1,0,1,0,1,1,1,1,1,0,0
%|1,1,0,1,0,1,1,1,1,1,1,0,1,0,1,1,0,1,1,0
%|0,1,1,0,0,1,0,1,1,0,1,1,1,1,0,1,1,1,1,1
%|0,1,1,1,1,1,1,1,1,0,1,1,1,1,1,0,1,0,0,0
%|0,1,1,1,1,1,1,1,1,1,1,0,1,0,1,1,0,1,0,0
%|1,1,1,1,0,1,1,1,1,0,0,1,1,1,1,0,1,0,0,1
%|1,1,1,1,1,1,1,1,1,1,1,1,0,1,1,0,0,0,0,0
%|1,1,1,1,1,1,1,1,1,1,1,1,0,0,1,0,0,1,0,0|];

%Played Fixtures:
%PlayedFixtures=[|0,1,1,1,1,1,1,1,2,2,1,1,1,1,2,2,2,1,1,1
%|1,0,2,1,1,2,2,2,2,1,1,1,1,1,1,1,1,1,1,1
%|1,2,0,1,2,2,1,1,1,1,1,1,2,2,1,1,1,1,1,1
%|1,1,1,0,1,1,1,2,2,1,2,2,1,1,2,1,1,1,1,1
%|1,1,2,1,0,1,1,2,1,1,1,1,1,2,2,1,1,2,1,1
%|1,2,2,1,1,0,1,1,2,1,2,1,2,1,1,1,1,1,1,1
%|1,2,1,1,1,1,0,2,1,1,2,2,1,1,2,1,1,1,1,1
%|1,2,1,2,2,1,2,0,2,1,1,1,1,1,1,1,1,1,1,1
%|2,2,1,2,1,2,1,2,0,1,1,1,1,1,1,1,1,1,1,1
%|2,1,1,1,1,1,1,1,1,0,1,2,1,1,2,2,1,2,1,1
%|1,1,1,2,1,2,2,1,1,1,0,1,2,1,1,1,1,2,1,1
%|1,1,1,2,1,1,2,1,1,2,1,0,1,2,1,1,2,1,1,1
%|1,1,2,1,1,2,1,1,1,1,2,1,0,1,1,1,1,1,2,2
%|1,1,2,1,2,1,1,1,1,1,1,2,1,0,1,1,2,1,1,2
%|2,1,1,2,2,1,2,1,1,2,1,1,1,1,0,1,1,1,1,1
%|2,1,1,1,1,1,1,1,1,2,1,1,1,1,1,0,1,2,2,2
%|2,1,1,1,1,1,1,1,1,1,1,2,1,2,1,1,0,1,2,2
%|1,1,1,1,2,1,1,1,1,2,2,1,1,1,1,2,1,0,2,1
%|1,1,1,1,1,1,1,1,1,1,1,1,2,1,1,2,2,2,0,2
%|1,1,1,1,1,1,1,1,1,1,1,1,2,2,1,2,2,1,2,0|];

%Games to play:
games=[|2,1|3,1|4,1|4,2|4,3|5,1|5,2|5,4|6,1|6,4|6,5|7,1|7,3|7,4|7,5|7,6|8,1|8,3|8,6|9,3|9,5|9,7|10,2|10,3|10,4|10,5|10,6|10,7|10,8|10,9|11,1|11,2|11,3|11,5|11,8|11,9|11,10|12,1|12,2|12,3|12,5|12,6|12,8|12,9|12,11|13,1|13,2|13,4|13,5|13,7|13,8|13,9|13,10|13,12|14,1|14,2|14,4|14,6|14,7|14,8|14,9|14,10|14,11|14,13|15,2|15,3|15,6|15,8|15,9|15,11|15,12|15,13|15,14|16,2|16,3|16,4|16,5|16,6|16,7|16,8|16,9|16,11|16,12|16,13|16,14|16,15|17,2|17,3|17,4|17,5|17,6|17,7|17,8|17,9|17,10|17,11|17,13|17,15|17,16|18,1|18,2|18,3|18,4|18,6|18,7|18,8|18,9|18,12|18,13|18,14|18,15|18,17|19,1|19,2|19,3|19,4|19,5|19,6|19,7|19,8|19,9|19,10|19,11|19,12|19,14|19,15|20,1|20,2|20,3|20,4|20,5|20,6|20,7|20,8|20,9|20,10|20,11|20,12|20,15|20,18|];

%Played Games:
%PlayedGames=[|2,1|3,1|3,2|3,2|4,1|4,2|4,3|5,1|5,2|5,3|5,3|5,4|6,1|6,2|6,2|6,3|6,3|6,4|6,5|7,1|7,2|7,2|7,3|7,4|7,5|7,6|8,1|8,2|8,2|8,3|8,4|8,4|8,5|8,5|8,6|8,7|8,7|9,1|9,1|9,2|9,2|9,3|9,4|9,4|9,5|9,6|9,6|9,7|9,8|9,8|10,1|10,1|10,2|10,3|10,4|10,5|10,6|10,7|10,8|10,9|11,1|11,2|11,3|11,4|11,4|11,5|11,6|11,6|11,7|11,7|11,8|11,9|11,10|12,1|12,2|12,3|12,4|12,4|12,5|12,6|12,7|12,7|12,8|12,9|12,10|12,10|12,11|13,1|13,2|13,3|13,3|13,4|13,5|13,6|13,6|13,7|13,8|13,9|13,10|13,11|13,11|13,12|14,1|14,2|14,3|14,3|14,4|14,5|14,5|14,6|14,7|14,8|14,9|14,10|14,11|14,12|14,12|14,13|15,1|15,1|15,2|15,3|15,4|15,4|15,5|15,5|15,6|15,7|15,7|15,8|15,9|15,10|15,10|15,11|15,12|15,13|15,14|16,1|16,1|16,2|16,3|16,4|16,5|16,6|16,7|16,8|16,9|16,10|16,10|16,11|16,12|16,13|16,14|16,15|17,1|17,1|17,2|17,3|17,4|17,5|17,6|17,7|17,8|17,9|17,10|17,11|17,12|17,12|17,13|17,14|17,14|17,15|17,16|18,1|18,2|18,3|18,4|18,5|18,5|18,6|18,7|18,8|18,9|18,10|18,10|18,11|18,11|18,12|18,13|18,14|18,15|18,16|18,16|18,17|19,1|19,2|19,3|19,4|19,5|19,6|19,7|19,8|19,9|19,10|19,11|19,12|19,13|19,13|19,14|19,15|19,16|19,16|19,17|19,17|19,18|19,18|20,1|20,2|20,3|20,4|20,5|20,6|20,7|20,8|20,9|20,10|20,11|20,12|20,13|20,13|20,14|20,14|20,15|20,16|20,16|20,17|20,17|20,18|20,19|20,19|];

%Played Games - Win Results:
%% 0  1  1  0  1  0  0  1  0  0  0  0  0  0  2  0  0  0  0  0
%% 0  0  0  0  0  0  0  0  0  0  0  0  0  0  0  0  1  0  0  0
%% 0  0  0  0  0  0  0  0  0  0  0  0  0  0  0  0  0  0  0  0
%% 0  0  0  0  0  0  0  0  0  0  0  0  0  0  0  0  0  0  0  0
%% 0  0  0  0  0  1  0  0  0  0  0  0  0  0  0  0  1  0  0  0
%% 0  0  0  0  0  0  0  0  0  0  0  0  0  0  0  0  0  0  0  0
%% 0  0  1  0  0  0  0  0  0  1  2  1  1  1  1  0  0  0  0  0
%% 0  0  0  0  0  0  0  0  0  0  0  0  0  0  0  0  1  0  0  0
%% 0  0  1  0  0  0  0  0  0  0  0  0  0  1  0  0  1  0  0  0
%% 0  1  1  1  0  1  0  1  1  0  1  0  1  0  2  0  1  0  0  1
%% 1  0  1  0  1  0  0  1  0  0  0  0  0  0  0  0  0  0  0  0
%% 0  1  1  0  0  0  0  1  1  0  0  0  0  0  1  0  0  0  0  0
%% 1  1  0  0  0  0  0  1  1  0  0  0  0  0  0  0  0  0  0  2
%% 0  0  0  0  0  0  0  0  0  0  0  0  0  0  0  0  0  0  0  0
%% 0  1  0  0  0  0  0  1  1  0  0  0  0  0  0  0  0  0  0  0
%% 0  1  1  0  1  0  1  1  1  2  1  0  0  0  0  0  0  2  0  2
%% 0  0  0  0  0  0  0  0  0  0  0  0  0  0  0  0  0  0  0  0
%% 1  0  1  0  0  1  1  0  1  0  0  1  1  1  0  0  0  0  0  0
%% 1  1  0  0  0  1  1  1  1  1  0  0  2  1  1  2  0  2  0  2
%% 1  0  0  0  1  1  0  1  0  0  1  0  0  0  0  0  0  0  0  0
%Played Games - Tie Results:
%% 0  0  0  1  0  1  1  0  2  2  0  1  0  1  0  2  2  0  0  0
%% 0  0  2  1  1  2  2  2  2  0  1  0  0  1  0  0  0  1  0  1
%% 0  2  0  1  2  2  0  1  0  0  0  0  2  2  1  0  1  0  1  1
%% 1  1  1  0  1  1  1  2  2  0  2  2  1  1  2  1  1  1  1  1
%% 0  1  2  1  0  0  1  2  1  1  0  1  1  2  2  0  0  2  1  0
%% 1  2  2  1  0  0  1  1  2  0  2  1  2  1  1  1  1  0  0  0
%% 1  2  0  1  1  1  0  2  1  0  0  1  0  0  1  0  1  0  0  1
%% 0  2  1  2  2  1  2  0  2  0  0  0  0  1  0  0  0  1  0  0
%% 2  2  0  2  1  2  1  2  0  0  1  0  0  0  0  0  0  0  0  1
%% 2  0  0  0  1  0  0  0  0  0  0  2  0  1  0  0  0  2  0  0
%% 0  1  0  2  0  2  0  0  1  0  0  1  2  1  1  0  1  2  1  0
%% 1  0  0  2  1  1  1  0  0  2  1  0  1  2  0  1  2  0  1  1
%% 0  0  2  1  1  2  0  0  0  0  2  1  0  1  1  1  1  0  0  0
%% 1  1  2  1  2  1  0  1  0  1  1  2  1  0  1  1  2  0  0  2
%% 0  0  1  2  2  1  1  0  0  0  1  0  1  1  0  1  1  1  0  1
%% 2  0  0  1  0  1  0  0  0  0  0  1  1  1  1  0  1  0  0  0
%% 2  0  1  1  0  1  1  0  0  0  1  2  1  2  1  1  0  1  2  2
%% 0  1  0  1  2  0  0  1  0  2  2  0  0  0  1  0  1  0  0  1
%% 0  0  1  1  1  0  0  0  0  0  1  1  0  0  0  0  2  0  0  0
%% 0  1  1  1  0  0  1  0  1  0  0  1  0  2  1  0  2  1  0  0
%Played Games - Lose Results:
%% 0  0  0  0  0  0  0  0  0  0  1  0  1  0  0  0  0  1  1  1
%% 1  0  0  0  0  0  0  0  0  1  0  1  1  0  1  1  0  0  1  0
%% 1  0  0  0  0  0  1  0  1  1  1  1  0  0  0  1  0  1  0  0
%% 0  0  0  0  0  0  0  0  0  1  0  0  0  0  0  0  0  0  0  0
%% 1  0  0  0  0  0  0  0  0  0  1  0  0  0  0  1  0  0  0  1
%% 0  0  0  0  1  0  0  0  0  1  0  0  0  0  0  0  0  1  1  1
%% 0  0  0  0  0  0  0  0  0  0  0  0  0  0  0  1  0  1  1  0
%% 1  0  0  0  0  0  0  0  0  1  1  1  1  0  1  1  0  0  1  1
%% 0  0  0  0  0  0  0  0  0  1  0  1  1  0  1  1  0  1  1  0
%% 0  0  0  0  0  0  1  0  0  0  0  0  0  0  0  2  0  0  1  0
%% 0  0  0  0  0  0  2  0  0  1  0  0  0  0  0  1  0  0  0  1
%% 0  0  0  0  0  0  1  0  0  0  0  0  0  0  0  0  0  1  0  0
%% 0  0  0  0  0  0  1  0  0  1  0  0  0  0  0  0  0  1  2  0
%% 0  0  0  0  0  0  1  0  1  0  0  0  0  0  0  0  0  1  1  0
%% 2  0  0  0  0  0  1  0  0  2  0  1  0  0  0  0  0  0  1  0
%% 0  0  0  0  0  0  0  0  0  0  0  0  0  0  0  0  0  0  2  0
%% 0  1  0  0  1  0  0  1  1  1  0  0  0  0  0  0  0  0  0  0
%% 0  0  0  0  0  0  0  0  0  0  0  0  0  0  0  2  0  0  2  0
%% 0  0  0  0  0  0  0  0  0  0  0  0  0  0  0  0  0  0  0  0
%% 0  0  0  0  0  0  0  0  0  1  0  0  2  0  0  2  0  0  2  0

%%Initial points:
iPoints=[31, 19, 16, 23, 24, 19, 37, 17, 23, 44, 27, 32, 31, 20, 23, 48, 19, 36, 58, 27];

%%Initial positions:
%iPositions=[8, 18, 20, 14, 11, 17, 4, 19, 13, 3, 10, 6, 7, 15, 12, 2, 16, 5, 1, 9];

%%Position Constraints:
%numberPositionConstraints=1;

%%Total Fixtures:
%totalFixtures=38;

%%Fixtures to Play:
%fixturesToPlay=14;

%%Position Constraints Built With
%wantedPoints=[0, 0, 1, 3, 3, 1, 1, 0, 3, 0, 0, 1, 0, 1, 1, 3, 1, 1, 1, 0, 3, 1, 0, 1, 3, 0, 3, 1, 1, 1, 0, 3, 3, 1, 1, 1, 3, 3, 0, 1, 3, 1, 0, 3, 1, 0, 1, 1, 0, 1, 0, 3, 3, 0, 3, 0, 0, 3, 3, 3, 1, 3, 1, 3, 0, 3, 1, 1, 1, 0, 3, 3, 3, 0, 0, 0, 1, 1, 0, 0, 3, 3, 1, 0, 0, 1, 1, 3, 1, 1, 1, 3, 1, 1, 0, 1, 3, 3, 0, 3, 3, 1, 3, 1, 3, 0, 3, 0, 0, 0, 3, 1, 3, 3, 0, 3, 3, 0, 1, 0, 3, 1, 3, 1, 0, 3, 3, 3, 3, 3, 1, 1, 0, 0, 1, 0, 0, 0, 1, 3];

%POSITION CONSTRAINTS
%%[|teamID, operator, position|...]
%%operators index:
%%%1 for =  operator
%%%2 for >  operator
%%%3 for >= operator
%%%4 for <  operator
%%%5 for <= operator

positionConstraints=[|6,1,19|];

%SCORE VECTOR CONSTRAINTS
%%[|teamID, operator, wantedPoints|...]
%%operators index:
%%%1 for =  operator
%%%2 for >  operator
%%%3 for >= operator
%%%4 for <  operator
%%%5 for <= operator

%scoreVectorConstraints=[|6,1,32|];

%Instance Features:
%features=T,FP,TF,C,C/T,C/TF,FP/TF,FP/T,FP*C/T,FP*T/C,(C/T)*(FP/TF),Distance,Distance/C,Distance/T,Distance/(C*T)
%values=20,14,38,1,0.05,0.02631578947368421,0.3684210526315789,0.7,0.7,280.0,0.01842105263157895,2,2.0,0.1,0.1



gamesOfEveryTeam=[14,14,14,14,14,14,14,14,14,14,14,14,14,14,14,14,14,14,14,14];
weights=[|42,31,0,27|89,3,0,8|30,16,0,54|77,23,0,0|5,80,0,15|80,17,0,3|36,18,0,46|52,24,0,24|81,4,0,15|17,43,0,40|1,98,0,1|2,65,0,33|29,21,0,50|60,28,0,12|6,57,0,37|22,19,0,59|13,72,0,15|62,36,0,2|20,12,0,68|5,67,0,28|87,10,0,3|78,20,0,2|43,43,0,14|100,0,0,0|45,13,0,42|89,7,0,4|41,19,0,40|91,3,0,6|57,41,0,2|53,45,0,2|87,8,0,5|84,10,0,6|43,9,0,48|13,0,0,87|3,30,0,67|70,21,0,9|39,51,0,10|33,9,0,58|33,59,0,8|75,9,0,16|43,33,0,24|93,0,0,7|53,38,0,9|70,21,0,9|48,22,0,30|41,6,0,53|13,64,0,23|43,32,0,25|33,33,0,34|3,32,0,65|54,41,0,5|84,4,0,12|88,0,0,12|80,15,0,5|43,36,0,21|95,0,0,5|93,4,0,3|21,35,0,44|52,15,0,33|42,58,0,0|99,0,0,1|57,22,0,21|89,5,0,6|19,25,0,56|67,26,0,7|99,1,0,0|69,22,0,9|41,24,0,35|47,23,0,30|85,2,0,13|86,10,0,4|68,20,0,12|15,10,0,75|89,0,0,11|49,17,0,34|96,2,0,2|95,5,0,0|36,38,0,26|64,24,0,12|47,5,0,48|72,13,0,15|11,0,0,89|58,5,0,37|48,50,0,2|79,8,0,13|85,13,0,2|84,10,0,6|50,2,0,48|64,36,0,0|27,57,0,16|66,8,0,26|2,81,0,17|98,1,0,1|34,45,0,21|12,26,0,62|6,47,0,47|47,33,0,20|97,3,0,0|12,31,0,57|60,2,0,38|72,27,0,1|32,29,0,39|98,1,0,1|28,5,0,67|22,50,0,28|93,3,0,4|93,5,0,2|88,12,0,0|60,7,0,33|70,23,0,7|5,73,0,22|30,25,0,45|38,20,0,42|74,22,0,4|37,15,0,48|26,0,0,74|97,1,0,2|66,32,0,2|18,81,0,1|50,41,0,9|37,56,0,7|67,16,0,17|20,75,0,5|29,47,0,24|14,74,0,12|43,45,0,12|72,12,0,16|29,42,0,29|76,5,0,19|51,22,0,27|75,4,0,21|75,21,0,4|77,18,0,5|9,46,0,45|20,79,0,1|54,30,0,16|56,44,0,0|26,44,0,30|42,24,0,34|5,31,0,64|];